exercise-08/absoneup/model/design_smt2.smt2
; SMT-LIBv2 description generated by Yosys 0.18 (git sha1 19ce3b45d6, gcc 11.3.0 -fPIC -Os)
; yosys-smt2-module absoneup
(declare-sort |absoneup_s| 0)
(declare-fun |absoneup_is| (|absoneup_s|) Bool)
(declare-fun |absoneup#0| (|absoneup_s|) (_ BitVec 32)) ; \r_count
; yosys-smt2-register r_count 32
; yosys-smt2-wire r_count 32
(define-fun |absoneup_n r_count| ((state |absoneup_s|)) (_ BitVec 32) (|absoneup#0| state))
(declare-fun |absoneup#1| (|absoneup_s|) (_ BitVec 1)) ; \o_carry
; yosys-smt2-output o_carry 1
; yosys-smt2-register o_carry 1
; yosys-smt2-wire o_carry 1
(define-fun |absoneup_n o_carry| ((state |absoneup_s|)) Bool (= ((_ extract 0 0) (|absoneup#1| state)) #b1))
; yosys-smt2-anyseq absoneup#2 32 absoneup.v:0.0-0.0 w_increment
(declare-fun |absoneup#2| (|absoneup_s|) (_ BitVec 32)) ; \ABSTRACT_COUNTER.w_increment
; yosys-smt2-wire increment 32
(define-fun |absoneup_n increment| ((state |absoneup_s|)) (_ BitVec 32) (|absoneup#2| state))
(declare-fun |absoneup#3| (|absoneup_s|) Bool) ; \i_clk
; yosys-smt2-input i_clk 1
; yosys-smt2-wire i_clk 1
; yosys-smt2-clock i_clk posedge
(define-fun |absoneup_n i_clk| ((state |absoneup_s|)) Bool (|absoneup#3| state))
(declare-fun |absoneup#4| (|absoneup_s|) (_ BitVec 1)) ; \f_past_valid
; yosys-smt2-register f_past_valid 1
; yosys-smt2-wire f_past_valid 1
(define-fun |absoneup_n f_past_valid| ((state |absoneup_s|)) Bool (= ((_ extract 0 0) (|absoneup#4| state)) #b1))
; yosys-smt2-wire ABSTRACT_COUNTER.w_increment 32
(define-fun |absoneup_n ABSTRACT_COUNTER.w_increment| ((state |absoneup_s|)) (_ BitVec 32) (|absoneup#2| state))
(declare-fun |absoneup#5| (|absoneup_s|) (_ BitVec 1)) ; $past$absoneup.v:132$1$0
; yosys-smt2-register $past$absoneup.v:132$1$0 1
(define-fun |absoneup_n $past$absoneup.v:132$1$0| ((state |absoneup_s|)) Bool (= ((_ extract 0 0) (|absoneup#5| state)) #b1))
(declare-fun |absoneup#6| (|absoneup_s|) (_ BitVec 1)) ; $formal$absoneup.v:132$3_EN
; yosys-smt2-register $formal$absoneup.v:132$3_EN 1
(define-fun |absoneup_n $formal$absoneup.v:132$3_EN| ((state |absoneup_s|)) Bool (= ((_ extract 0 0) (|absoneup#6| state)) #b1))
(declare-fun |absoneup#7| (|absoneup_s|) (_ BitVec 1)) ; $formal$absoneup.v:132$3_CHECK
; yosys-smt2-register $formal$absoneup.v:132$3_CHECK 1
(define-fun |absoneup_n $formal$absoneup.v:132$3_CHECK| ((state |absoneup_s|)) Bool (= ((_ extract 0 0) (|absoneup#7| state)) #b1))
(declare-fun |absoneup#8| (|absoneup_s|) (_ BitVec 1)) ; $formal$absoneup.v:128$2_EN
; yosys-smt2-register $formal$absoneup.v:128$2_EN 1
(define-fun |absoneup_n $formal$absoneup.v:128$2_EN| ((state |absoneup_s|)) Bool (= ((_ extract 0 0) (|absoneup#8| state)) #b1))
(declare-fun |absoneup#9| (|absoneup_s|) (_ BitVec 1)) ; $formal$absoneup.v:128$2_CHECK
; yosys-smt2-register $formal$absoneup.v:128$2_CHECK 1
(define-fun |absoneup_n $formal$absoneup.v:128$2_CHECK| ((state |absoneup_s|)) Bool (= ((_ extract 0 0) (|absoneup#9| state)) #b1))
(define-fun |absoneup#10| ((state |absoneup_s|)) Bool (bvugt (|absoneup#2| state) #b00000000000000000000000000000000)) ; $gt$absoneup.v:87$31_Y
(define-fun |absoneup#11| ((state |absoneup_s|)) (_ BitVec 32) (bvsub #b11111111111111111111111111111111 (|absoneup#0| state))) ; $sub$absoneup.v:87$32_Y
(define-fun |absoneup#12| ((state |absoneup_s|)) Bool (bvule (|absoneup#2| state) (|absoneup#11| state))) ; $le$absoneup.v:87$33_Y
(define-fun |absoneup#13| ((state |absoneup_s|)) Bool (and (or  (|absoneup#10| state) false) (or  (|absoneup#12| state) false))) ; $logic_and$absoneup.v:87$34_Y
; yosys-smt2-anyseq absoneup#14 1 $auto$setundef.cc:501:execute$90
(declare-fun |absoneup#14| (|absoneup_s|) (_ BitVec 1)) ; $auto$rtlil.cc:3130:Anyseq$91
(define-fun |absoneup#15| ((state |absoneup_s|)) Bool (= (|absoneup#0| state) #b11111111111111111111111111111111)) ; $0$past$absoneup.v:132$1$0[0:0]$16
(define-fun |absoneup#16| ((state |absoneup_s|)) (_ BitVec 1) (ite (|absoneup#15| state) (|absoneup#14| state) (ite (|absoneup#13| state) #b1 #b0))) ; $0$formal$absoneup.v:86$5_CHECK[0:0]$27
(define-fun |absoneup#17| ((state |absoneup_s|)) (_ BitVec 1) (ite (|absoneup#15| state) #b0 #b1)) ; $0$formal$absoneup.v:86$5_EN[0:0]$28
; yosys-smt2-assume 0 $assume$absoneup.v:86$38 absoneup.v:86.21-87.86
(define-fun |absoneup_u 0| ((state |absoneup_s|)) Bool (or (= ((_ extract 0 0) (|absoneup#16| state)) #b1) (not (= ((_ extract 0 0) (|absoneup#17| state)) #b1)))) ; $assume$absoneup.v:86$38
; yosys-smt2-anyseq absoneup#18 1 $auto$setundef.cc:501:execute$88
(declare-fun |absoneup#18| (|absoneup_s|) (_ BitVec 1)) ; $auto$rtlil.cc:3130:Anyseq$89
(define-fun |absoneup#19| ((state |absoneup_s|)) Bool (= (|absoneup#2| state) #b00000000000000000000000000000001)) ; $eq$absoneup.v:85$30_Y
(define-fun |absoneup#20| ((state |absoneup_s|)) (_ BitVec 1) (ite (|absoneup#15| state) (ite (|absoneup#19| state) #b1 #b0) (|absoneup#18| state))) ; $0$formal$absoneup.v:84$4_CHECK[0:0]$25
(define-fun |absoneup#21| ((state |absoneup_s|)) (_ BitVec 1) (ite (|absoneup#15| state) #b1 #b0)) ; $0$formal$absoneup.v:84$4_EN[0:0]$26
; yosys-smt2-assume 1 $assume$absoneup.v:84$37 absoneup.v:84.34-85.41
(define-fun |absoneup_u 1| ((state |absoneup_s|)) Bool (or (= ((_ extract 0 0) (|absoneup#20| state)) #b1) (not (= ((_ extract 0 0) (|absoneup#21| state)) #b1)))) ; $assume$absoneup.v:84$37
; yosys-smt2-assert 0 $assert$absoneup.v:132$36 absoneup.v:132.48-133.29
(define-fun |absoneup_a 0| ((state |absoneup_s|)) Bool (or (= ((_ extract 0 0) (|absoneup#7| state)) #b1) (not (= ((_ extract 0 0) (|absoneup#6| state)) #b1)))) ; $assert$absoneup.v:132$36
; yosys-smt2-assert 1 $assert$absoneup.v:128$35 absoneup.v:128.26-129.46
(define-fun |absoneup_a 1| ((state |absoneup_s|)) Bool (or (= ((_ extract 0 0) (|absoneup#9| state)) #b1) (not (= ((_ extract 0 0) (|absoneup#8| state)) #b1)))) ; $assert$absoneup.v:128$35
; yosys-smt2-anyseq absoneup#22 1 $auto$setundef.cc:501:execute$94
(declare-fun |absoneup#22| (|absoneup_s|) (_ BitVec 1)) ; $auto$rtlil.cc:3130:Anyseq$95
(define-fun |absoneup#23| ((state |absoneup_s|)) Bool (not (or  (= ((_ extract 0 0) (|absoneup#0| state)) #b1) (= ((_ extract 1 1) (|absoneup#0| state)) #b1) (= ((_ extract 2 2) (|absoneup#0| state)) #b1) (= ((_ extract 3 3) (|absoneup#0| state)) #b1) (= ((_ extract 4 4) (|absoneup#0| state)) #b1) (= ((_ extract 5 5) (|absoneup#0| state)) #b1) (= ((_ extract 6 6) (|absoneup#0| state)) #b1) (= ((_ extract 7 7) (|absoneup#0| state)) #b1) (= ((_ extract 8 8) (|absoneup#0| state)) #b1) (= ((_ extract 9 9) (|absoneup#0| state)) #b1) (= ((_ extract 10 10) (|absoneup#0| state)) #b1) (= ((_ extract 11 11) (|absoneup#0| state)) #b1) (= ((_ extract 12 12) (|absoneup#0| state)) #b1) (= ((_ extract 13 13) (|absoneup#0| state)) #b1) (= ((_ extract 14 14) (|absoneup#0| state)) #b1) (= ((_ extract 15 15) (|absoneup#0| state)) #b1) (= ((_ extract 16 16) (|absoneup#0| state)) #b1) (= ((_ extract 17 17) (|absoneup#0| state)) #b1) (= ((_ extract 18 18) (|absoneup#0| state)) #b1) (= ((_ extract 19 19) (|absoneup#0| state)) #b1) (= ((_ extract 20 20) (|absoneup#0| state)) #b1) (= ((_ extract 21 21) (|absoneup#0| state)) #b1) (= ((_ extract 22 22) (|absoneup#0| state)) #b1) (= ((_ extract 23 23) (|absoneup#0| state)) #b1) (= ((_ extract 24 24) (|absoneup#0| state)) #b1) (= ((_ extract 25 25) (|absoneup#0| state)) #b1) (= ((_ extract 26 26) (|absoneup#0| state)) #b1) (= ((_ extract 27 27) (|absoneup#0| state)) #b1) (= ((_ extract 28 28) (|absoneup#0| state)) #b1) (= ((_ extract 29 29) (|absoneup#0| state)) #b1) (= ((_ extract 30 30) (|absoneup#0| state)) #b1) (= ((_ extract 31 31) (|absoneup#0| state)) #b1)))) ; $eq$absoneup.v:129$13_Y
(define-fun |absoneup#24| ((state |absoneup_s|)) Bool (= (|absoneup#1| state) (ite (|absoneup#23| state) #b1 #b0))) ; $eq$absoneup.v:129$14_Y
(define-fun |absoneup#25| ((state |absoneup_s|)) (_ BitVec 1) (ite (= ((_ extract 0 0) (|absoneup#4| state)) #b1) (ite (|absoneup#24| state) #b1 #b0) (|absoneup#22| state))) ; $0$formal$absoneup.v:128$2_CHECK[0:0]$11
(define-fun |absoneup#26| ((state |absoneup_s|)) (_ BitVec 1) (ite (= ((_ extract 0 0) (|absoneup#4| state)) #b1) #b1 #b0)) ; $0$formal$absoneup.v:128$2_EN[0:0]$12
; yosys-smt2-anyseq absoneup#27 1 $auto$setundef.cc:501:execute$92
(declare-fun |absoneup#27| (|absoneup_s|) (_ BitVec 1)) ; $auto$rtlil.cc:3130:Anyseq$93
(define-fun |absoneup#28| ((state |absoneup_s|)) Bool (not (or  (= ((_ extract 0 0) (|absoneup#1| state)) #b1) false))) ; $logic_not$absoneup.v:133$21_Y
(define-fun |absoneup#29| ((state |absoneup_s|)) Bool (not (or  (= ((_ extract 0 0) (|absoneup#5| state)) #b1) false))) ; $logic_not$absoneup.v:132$19_Y
(define-fun |absoneup#30| ((state |absoneup_s|)) Bool (and (or  (= ((_ extract 0 0) (|absoneup#4| state)) #b1) false) (or  (|absoneup#29| state) false))) ; $logic_and$absoneup.v:132$20_Y
(define-fun |absoneup#31| ((state |absoneup_s|)) (_ BitVec 1) (ite (|absoneup#30| state) (ite (|absoneup#28| state) #b1 #b0) (|absoneup#27| state))) ; $0$formal$absoneup.v:132$3_CHECK[0:0]$17
(define-fun |absoneup#32| ((state |absoneup_s|)) (_ BitVec 1) (ite (|absoneup#30| state) #b1 #b0)) ; $0$formal$absoneup.v:132$3_EN[0:0]$18
(define-fun |absoneup#33| ((state |absoneup_s|)) (_ BitVec 32) (bvadd (|absoneup#0| state) (|absoneup#2| state))) ; $add$absoneup.v:107$8_Y
(define-fun |absoneup#34| ((state |absoneup_s|)) (_ BitVec 32) (ite (|absoneup#15| state) #b00000000000000000000000000000000 (|absoneup#33| state))) ; $auto$rtlil.cc:2456:Mux$98
(define-fun |absoneup_a| ((state |absoneup_s|)) Bool (and
  (|absoneup_a 0| state)
  (|absoneup_a 1| state)
))
(define-fun |absoneup_u| ((state |absoneup_s|)) Bool (and
  (|absoneup_u 0| state)
  (|absoneup_u 1| state)
))
(define-fun |absoneup_i| ((state |absoneup_s|)) Bool (and
  (= (|absoneup#0| state) #b11111111111111111111111111111010) ; r_count
  (= (= ((_ extract 0 0) (|absoneup#1| state)) #b1) false) ; o_carry
  (= (= ((_ extract 0 0) (|absoneup#4| state)) #b1) false) ; f_past_valid
  (= (= ((_ extract 0 0) (|absoneup#6| state)) #b1) false) ; $formal$absoneup.v:132$3_EN
  (= (= ((_ extract 0 0) (|absoneup#8| state)) #b1) false) ; $formal$absoneup.v:128$2_EN
))
(define-fun |absoneup_h| ((state |absoneup_s|)) Bool true)
(define-fun |absoneup_t| ((state |absoneup_s|) (next_state |absoneup_s|)) Bool (and
  (= (|absoneup#25| state) (|absoneup#9| next_state)) ; $procdff$83 $formal$absoneup.v:128$2_CHECK
  (= (|absoneup#26| state) (|absoneup#8| next_state)) ; $procdff$84 $formal$absoneup.v:128$2_EN
  (= (|absoneup#31| state) (|absoneup#7| next_state)) ; $procdff$81 $formal$absoneup.v:132$3_CHECK
  (= (|absoneup#32| state) (|absoneup#6| next_state)) ; $procdff$82 $formal$absoneup.v:132$3_EN
  (= (ite (|absoneup#15| state) #b1 #b0) (|absoneup#5| next_state)) ; $procdff$80 $past$absoneup.v:132$1$0
  (= #b1 (|absoneup#4| next_state)) ; $procdff$85 \f_past_valid
  (= (|absoneup#21| state) (|absoneup#1| next_state)) ; $procdff$77 \o_carry
  (= (|absoneup#34| state) (|absoneup#0| next_state)) ; $auto$ff.cc:262:slice$96 \r_count
)) ; end of module absoneup
; yosys-smt2-topmod absoneup
; end of yosys output
